W=4;
H=6;

MAX_TIME=21;
MAX_TRACKS=8;
SEMAPHORE_SUPPLY=1;

TARGET=(4,4);

TRAINS=[(2,1,DOWN),(6,1,TOP)];
DECOYS=[];

INIT_POS=[
(1,2,STRAIGHT_RL),
(2,1,STRAIGHT_TD),
(4,2,STRAIGHT_RL),
(4,3,STRAIGHT_RL),
(4,4,STRAIGHT_RL),
(6,1,STRAIGHT_TD),
];
TUNNEL_PAIRS=[];

GATES=[
(4,3,1,true),
];
ACTIVATIONS=[
(1,2,1),
(4,2,1),
];

DSWITCHES=[];
STATIONS=[];
